0 76
1 52
2 56
3 49
4 57
5 53
6 53
7 68
8 49
9 64
10 49
11 49
12 49
13 50
14 50
15 66
16 57
17 83
18 51
19 55
20 57
21 52
22 55
23 53
24 50
25 48
26 49
27 53
28 50
29 63
30 46
31 46
32 91
33 43
34 39
35 55
36 40
37 39
38 35
39 46
40 43
41 36
